cliques=[{0,13},{1,2},{1,2},{2,3},{2,4},{2,5},{2,6},{7,20},{1,8},{9,20},{2,10},{3,11},{12,13},{0,13},{0,14},{4,15},{8,16},{2,17},{3,18},{8,19},{0,20},{5,21},{2,22},{3,23},{1,24},{2,25},{4,26},{8,27},{8,28},{8,29},{3,30},{11,31},{3,32},{0,33},{4,34},{4,35},{2,36},{0,37},{2,38},{5,39},{13,40},{0,41},{2,42},{2,43},{0,44},{5,45},{2,46}];
nr_cliques=47;
